
Gurobi 8.1.1 (win64) logging started 11/23/19 15:52:50

Changed value of parameter LogFile to logs/drand/max/drand-10-110-2.log
   Prev: gurobi.log  Default: 
Changed value of parameter LogToConsole to 0
   Prev: 1  Min: 0  Max: 1  Default: 1
Changed value of parameter TimeLimit to 3600.0
   Prev: 1e+100  Min: 0.0  Max: 1e+100  Default: 1e+100
Optimize a model with 802 rows, 369 columns and 2952 nonzeros
Variable types: 0 continuous, 369 integer (360 binary)
Coefficient statistics:
  Matrix range     [1e+00, 5e+02]
  Objective range  [1e+00, 1e+00]
  Bounds range     [1e+00, 1e+00]
  RHS range        [1e+00, 6e+02]
Found heuristic solution: objective 1.0000000
Presolve time: 0.01s
Presolved: 802 rows, 369 columns, 2952 nonzeros
Variable types: 0 continuous, 369 integer (360 binary)

Root relaxation: objective 1.000000e+01, 96 iterations, 0.01 seconds

    Nodes    |    Current Node    |     Objective Bounds      |     Work
 Expl Unexpl |  Obj  Depth IntInf | Incumbent    BestBd   Gap | It/Node Time

     0     0   10.00000    0    4    1.00000   10.00000   900%     -    0s
H    0     0                       8.0000000   10.00000  25.0%     -    0s
H    0     0                       9.0000000   10.00000  11.1%     -    0s
     0     0   10.00000    0   23    9.00000   10.00000  11.1%     -    0s
     0     0   10.00000    0    2    9.00000   10.00000  11.1%     -    0s
     0     0   10.00000    0    2    9.00000   10.00000  11.1%     -    0s
     0     0   10.00000    0    6    9.00000   10.00000  11.1%     -    0s
     0     0   10.00000    0    2    9.00000   10.00000  11.1%     -    0s
H    0     0                      10.0000000   10.00000  0.00%     -    0s

Cutting planes:
  MIR: 1

Explored 1 nodes (773 simplex iterations) in 0.21 seconds
Thread count was 4 (of 4 available processors)

Solution count 4: 10 9 8 1 

Optimal solution found (tolerance 1.00e-04)
Best objective 1.000000000000e+01, best bound 1.000000000000e+01, gap 0.0000%

Gurobi 8.1.1 (win64) logging started 11/23/19 15:52:50

Changed value of parameter LogFile to logs/drand/max/drand-10-110-2.log
   Prev: gurobi.log  Default: 
Changed value of parameter LogToConsole to 0
   Prev: 1  Min: 0  Max: 1  Default: 1
Changed value of parameter TimeLimit to 3600.0
   Prev: 1e+100  Min: 0.0  Max: 1e+100  Default: 1e+100
Optimize a model with 472 rows, 217 columns and 1722 nonzeros
Variable types: 0 continuous, 217 integer (210 binary)
Coefficient statistics:
  Matrix range     [1e+00, 5e+02]
  Objective range  [1e+00, 1e+00]
  Bounds range     [1e+00, 1e+00]
  RHS range        [1e+00, 6e+02]
Found heuristic solution: objective 1.0000000
Presolve time: 0.02s
Presolved: 472 rows, 217 columns, 1722 nonzeros
Variable types: 0 continuous, 217 integer (210 binary)

Root relaxation: objective 1.000000e+01, 83 iterations, 0.00 seconds

    Nodes    |    Current Node    |     Objective Bounds      |     Work
 Expl Unexpl |  Obj  Depth IntInf | Incumbent    BestBd   Gap | It/Node Time

     0     0   10.00000    0    8    1.00000   10.00000   900%     -    0s
H    0     0                       7.0000000   10.00000  42.9%     -    0s
     0     0   10.00000    0   17    7.00000   10.00000  42.9%     -    0s
     0     0   10.00000    0   16    7.00000   10.00000  42.9%     -    0s
     0     0   10.00000    0    9    7.00000   10.00000  42.9%     -    0s
H    0     0                       8.0000000   10.00000  25.0%     -    0s
     0     0   10.00000    0    9    8.00000   10.00000  25.0%     -    0s
     0     0   10.00000    0    6    8.00000   10.00000  25.0%     -    0s
     0     0   10.00000    0    6    8.00000   10.00000  25.0%     -    0s
     0     0   10.00000    0    6    8.00000   10.00000  25.0%     -    0s
     0     0   10.00000    0    6    8.00000   10.00000  25.0%     -    0s
     0     2   10.00000    0    6    8.00000   10.00000  25.0%     -    0s
 20874  6134    9.97552   65    6    8.00000   10.00000  25.0%   4.6    5s
 59266 11582   10.00000   65    8    8.00000   10.00000  25.0%   4.7   10s
 105895 21959   10.00000   82   12    8.00000   10.00000  25.0%   4.8   15s
 152412 31328    9.63014   97    9    8.00000   10.00000  25.0%   5.0   20s
 198613 42194    9.00000   88    6    8.00000   10.00000  25.0%   5.0   25s
 245735 50577   10.00000   43   14    8.00000   10.00000  25.0%   5.0   30s
 291339 58417    9.00000   73    9    8.00000   10.00000  25.0%   5.0   35s
 339273 67042    9.00000   75    8    8.00000   10.00000  25.0%   5.0   40s
 385719 76279   10.00000   71   10    8.00000   10.00000  25.0%   5.0   45s
 429271 83950   10.00000   86    8    8.00000   10.00000  25.0%   5.1   50s
 477031 92063   10.00000   63    9    8.00000   10.00000  25.0%   5.1   55s
 525032 99265    9.91271   81   11    8.00000   10.00000  25.0%   5.1   60s
 571624 107361   10.00000   67   11    8.00000   10.00000  25.0%   5.1   65s
 615110 114682 infeasible   77         8.00000   10.00000  25.0%   5.1   70s
 660457 121956   10.00000   63   11    8.00000   10.00000  25.0%   5.1   75s
 708141 132409    9.69436   66   17    8.00000   10.00000  25.0%   5.1   80s
 751123 139604 infeasible   82         8.00000   10.00000  25.0%   5.1   85s
 797054 147191   10.00000   49   11    8.00000   10.00000  25.0%   5.1   90s
 839522 154265 infeasible   61         8.00000   10.00000  25.0%   5.2   95s
 884377 161035 infeasible   81         8.00000   10.00000  25.0%   5.2  100s
 929107 168423   10.00000   62    8    8.00000   10.00000  25.0%   5.2  105s
 969964 174546 infeasible   85         8.00000   10.00000  25.0%   5.2  110s
 1014509 182027 infeasible   74         8.00000   10.00000  25.0%   5.2  115s
 1058825 192310    9.00000   88    6    8.00000   10.00000  25.0%   5.2  120s
 1102247 202071    9.00000   61    8    8.00000   10.00000  25.0%   5.3  125s
 1147146 211062 infeasible   77         8.00000   10.00000  25.0%   5.3  130s
 1191075 220737    9.27907   68   11    8.00000   10.00000  25.0%   5.3  135s
 1238535 230519   10.00000   54   14    8.00000   10.00000  25.0%   5.3  140s
 1281097 239101   10.00000   53    8    8.00000   10.00000  25.0%   5.3  145s
 1326014 249658    9.99179   42    8    8.00000   10.00000  25.0%   5.3  150s
H1327469  9047                       9.0000000   10.00000  11.1%   5.3  150s
 1358986  4833   10.00000   90   10    9.00000   10.00000  11.1%   5.3  155s
 1425900  9007 infeasible   78         9.00000   10.00000  11.1%   5.2  160s
 1492991 13133 infeasible  102         9.00000   10.00000  11.1%   5.1  165s
 1554158 13637 infeasible   90         9.00000   10.00000  11.1%   5.1  170s
 1619882 14848 infeasible   83         9.00000   10.00000  11.1%   5.1  175s
 1684246 14464 infeasible   75         9.00000   10.00000  11.1%   5.0  180s
 1749443 15694 infeasible   76         9.00000   10.00000  11.1%   5.0  185s
 1813481 19132   10.00000   74    8    9.00000   10.00000  11.1%   4.9  190s
 1875658 20988 infeasible   81         9.00000   10.00000  11.1%   4.9  195s
 1940959 21523   10.00000   83   10    9.00000   10.00000  11.1%   4.9  200s
 1997921 21583 infeasible   93         9.00000   10.00000  11.1%   4.8  205s
 2065530 22194 infeasible   87         9.00000   10.00000  11.1%   4.8  210s
 2130210 22858   10.00000   90   12    9.00000   10.00000  11.1%   4.8  215s
 2192698 23074 infeasible   83         9.00000   10.00000  11.1%   4.7  220s
 2252570 23480 infeasible   78         9.00000   10.00000  11.1%   4.7  225s
 2317016 24709 infeasible   80         9.00000   10.00000  11.1%   4.7  230s
 2383901 24642 infeasible   87         9.00000   10.00000  11.1%   4.7  235s
 2449528 25145 infeasible   75         9.00000   10.00000  11.1%   4.6  240s
 2507622 26845   10.00000   95    8    9.00000   10.00000  11.1%   4.6  245s
 2552786 27897 infeasible  106         9.00000   10.00000  11.1%   4.6  250s
 2603565 29029 infeasible   81         9.00000   10.00000  11.1%   4.6  255s
 2670017 30737 infeasible   82         9.00000   10.00000  11.1%   4.6  260s
 2736379 32589   10.00000   96   10    9.00000   10.00000  11.1%   4.5  265s
 2800840 36197 infeasible   95         9.00000   10.00000  11.1%   4.5  270s
 2866929 37331 infeasible   85         9.00000   10.00000  11.1%   4.5  275s
 2934066 37523 infeasible   58         9.00000   10.00000  11.1%   4.5  280s
 2999528 37944 infeasible  103         9.00000   10.00000  11.1%   4.5  285s
 3066590 38025   10.00000   68   13    9.00000   10.00000  11.1%   4.4  290s
 3131780 40853 infeasible   94         9.00000   10.00000  11.1%   4.4  295s
 3198667 42436 infeasible   69         9.00000   10.00000  11.1%   4.4  300s
 3262701 44930 infeasible  110         9.00000   10.00000  11.1%   4.4  305s
 3325374 46696   10.00000   87    8    9.00000   10.00000  11.1%   4.4  310s
 3387009 46919   10.00000   77   11    9.00000   10.00000  11.1%   4.4  315s
 3450174 48455   10.00000   99    8    9.00000   10.00000  11.1%   4.4  320s
 3513439 48921 infeasible  105         9.00000   10.00000  11.1%   4.4  325s
 3575494 50225 infeasible  104         9.00000   10.00000  11.1%   4.4  330s
 3639006 51537 infeasible  102         9.00000   10.00000  11.1%   4.4  335s
 3700144 52931   10.00000  104   12    9.00000   10.00000  11.1%   4.4  340s
 3761269 53716 infeasible   88         9.00000   10.00000  11.1%   4.4  345s
 3823569 54902 infeasible   86         9.00000   10.00000  11.1%   4.4  350s
 3886827 56630   10.00000   68   24    9.00000   10.00000  11.1%   4.4  355s
 3949231 57983   10.00000   83   13    9.00000   10.00000  11.1%   4.4  360s
 4012602 59045   10.00000   79    9    9.00000   10.00000  11.1%   4.4  365s
 4071475 60519 infeasible   98         9.00000   10.00000  11.1%   4.4  370s
 4135898 61117   10.00000   91   13    9.00000   10.00000  11.1%   4.4  375s
 4198071 61908 infeasible   96         9.00000   10.00000  11.1%   4.4  380s
 4260199 62976 infeasible  126         9.00000   10.00000  11.1%   4.4  385s
 4321242 64934 infeasible  120         9.00000   10.00000  11.1%   4.4  390s
 4381047 65450 infeasible   77         9.00000   10.00000  11.1%   4.4  395s
 4447771 66587 infeasible   81         9.00000   10.00000  11.1%   4.4  400s
 4511852 67127 infeasible  100         9.00000   10.00000  11.1%   4.4  405s
 4571562 68420 infeasible   81         9.00000   10.00000  11.1%   4.4  410s
 4636202 68102 infeasible   78         9.00000   10.00000  11.1%   4.4  415s
 4698349 68517 infeasible  102         9.00000   10.00000  11.1%   4.4  420s
 4761094 68598 infeasible   89         9.00000   10.00000  11.1%   4.4  425s
 4822994 69152   10.00000   94   25    9.00000   10.00000  11.1%   4.4  430s
 4877431 69434 infeasible   98         9.00000   10.00000  11.1%   4.4  435s
 4938903 67827   10.00000   80   12    9.00000   10.00000  11.1%   4.4  440s
 5000363 68007 infeasible   68         9.00000   10.00000  11.1%   4.4  445s
 5063869 67786 infeasible   88         9.00000   10.00000  11.1%   4.4  450s
 5125151 67239 infeasible   82         9.00000   10.00000  11.1%   4.4  455s
 5186706 65859 infeasible  112         9.00000   10.00000  11.1%   4.4  460s
 5245244 65394 infeasible   92         9.00000   10.00000  11.1%   4.4  465s
 5300687 62944 infeasible   85         9.00000   10.00000  11.1%   4.4  470s
 5361163 61464 infeasible   99         9.00000   10.00000  11.1%   4.4  475s
 5423368 59976 infeasible   86         9.00000   10.00000  11.1%   4.4  480s
 5485140 57560 infeasible  105         9.00000   10.00000  11.1%   4.3  485s
 5546757 55770 infeasible   76         9.00000   10.00000  11.1%   4.3  490s
 5606026 52825   10.00000  107   10    9.00000   10.00000  11.1%   4.3  495s
 5667348 51846   10.00000  113   10    9.00000   10.00000  11.1%   4.3  500s
 5730667 51208 infeasible   84         9.00000   10.00000  11.1%   4.3  505s
 5789370 51156   10.00000   87    9    9.00000   10.00000  11.1%   4.3  510s
 5849937 48710 infeasible   91         9.00000   10.00000  11.1%   4.3  515s
 5907574 47083 infeasible   97         9.00000   10.00000  11.1%   4.3  520s
 5964150 42757   10.00000   90   11    9.00000   10.00000  11.1%   4.3  525s
 6018663 38966 infeasible   88         9.00000   10.00000  11.1%   4.3  530s
 6069170 35106 infeasible  101         9.00000   10.00000  11.1%   4.3  535s
 6118272 32255   10.00000   79   10    9.00000   10.00000  11.1%   4.3  540s
 6167828 28258   10.00000   69    8    9.00000   10.00000  11.1%   4.3  545s
 6217461 26345 infeasible   77         9.00000   10.00000  11.1%   4.3  550s
 6266123 23510 infeasible  103         9.00000   10.00000  11.1%   4.3  555s
 6320856 19874 infeasible   75         9.00000   10.00000  11.1%   4.3  560s
 6378084 16030 infeasible   95         9.00000   10.00000  11.1%   4.3  565s
 6433605 12406 infeasible   93         9.00000   10.00000  11.1%   4.3  570s
 6490211  8930 infeasible   97         9.00000   10.00000  11.1%   4.3  575s
 6537315  7643   10.00000   67    8    9.00000   10.00000  11.1%   4.3  580s
 6582650  6119 infeasible   94         9.00000   10.00000  11.1%   4.3  585s
 6630920  3553 infeasible   90         9.00000   10.00000  11.1%   4.3  590s

Cutting planes:
  Gomory: 1
  Flow cover: 4
  Inf proof: 29

Explored 6657655 nodes (28876822 simplex iterations) in 592.63 seconds
Thread count was 4 (of 4 available processors)

Solution count 4: 9 8 7 1 

Optimal solution found (tolerance 1.00e-04)
Best objective 9.000000000000e+00, best bound 9.000000000000e+00, gap 0.0000%

Gurobi 8.1.1 (win64) logging started 11/23/19 16:02:43

Changed value of parameter LogFile to logs/drand/max/drand-10-110-2.log
   Prev: gurobi.log  Default: 
Changed value of parameter LogToConsole to 0
   Prev: 1  Min: 0  Max: 1  Default: 1
Changed value of parameter TimeLimit to 3600.0
   Prev: 1e+100  Min: 0.0  Max: 1e+100  Default: 1e+100
Optimize a model with 626 rows, 288 columns and 2296 nonzeros
Variable types: 0 continuous, 288 integer (280 binary)
Coefficient statistics:
  Matrix range     [1e+00, 5e+02]
  Objective range  [1e+00, 1e+00]
  Bounds range     [1e+00, 1e+00]
  RHS range        [1e+00, 6e+02]
Found heuristic solution: objective 1.0000000
Presolve time: 0.01s
Presolved: 626 rows, 288 columns, 2296 nonzeros
Variable types: 0 continuous, 288 integer (280 binary)

Root relaxation: objective 1.000000e+01, 91 iterations, 0.00 seconds

    Nodes    |    Current Node    |     Objective Bounds      |     Work
 Expl Unexpl |  Obj  Depth IntInf | Incumbent    BestBd   Gap | It/Node Time

     0     0   10.00000    0    2    1.00000   10.00000   900%     -    0s
H    0     0                       9.0000000   10.00000  11.1%     -    0s
     0     0   10.00000    0   16    9.00000   10.00000  11.1%     -    0s
     0     0   10.00000    0    2    9.00000   10.00000  11.1%     -    0s
     0     0   10.00000    0    4    9.00000   10.00000  11.1%     -    0s
     0     0   10.00000    0    4    9.00000   10.00000  11.1%     -    0s
     0     0   10.00000    0    4    9.00000   10.00000  11.1%     -    0s
     0     2   10.00000    0    4    9.00000   10.00000  11.1%     -    0s
 21633  2442   10.00000   77    4    9.00000   10.00000  11.1%   3.8    5s
H21638  2322                      10.0000000   10.00000  0.00%   3.8    5s

Cutting planes:
  Gomory: 1
  Flow cover: 2
  Mod-K: 1

Explored 21638 nodes (83333 simplex iterations) in 5.60 seconds
Thread count was 4 (of 4 available processors)

Solution count 3: 10 9 1 

Optimal solution found (tolerance 1.00e-04)
Best objective 1.000000000000e+01, best bound 1.000000000000e+01, gap 0.0000%
